SumColouring/JavaBacktracker/RandomInstances/36_0.65_1.col
c File: instances/36_0.65_1.col
c
c Description: Random graph of size 36 vertices and P(0.65) of edges between any two vertices.
p col 36 630
e 1 2
e 1 3
e 1 4
e 1 5
e 1 6
e 1 8
e 1 10
e 1 11
e 1 14
e 1 17
e 1 18
e 1 19
e 1 21
e 1 22
e 1 23
e 1 24
e 1 25
e 1 26
e 1 28
e 1 29
e 1 30
e 1 32
e 1 33
e 1 34
e 1 36
e 2 3
e 2 4
e 2 6
e 2 7
e 2 8
e 2 9
e 2 11
e 2 12
e 2 13
e 2 14
e 2 18
e 2 20
e 2 21
e 2 22
e 2 23
e 2 26
e 2 27
e 2 28
e 2 29
e 2 31
e 2 33
e 2 35
e 2 36
e 3 4
e 3 5
e 3 6
e 3 8
e 3 9
e 3 10
e 3 13
e 3 14
e 3 16
e 3 17
e 3 18
e 3 19
e 3 20
e 3 21
e 3 22
e 3 23
e 3 24
e 3 25
e 3 26
e 3 28
e 3 29
e 3 30
e 3 31
e 3 32
e 3 33
e 3 34
e 3 35
e 3 36
e 4 6
e 4 7
e 4 8
e 4 10
e 4 11
e 4 12
e 4 13
e 4 14
e 4 15
e 4 16
e 4 18
e 4 19
e 4 21
e 4 22
e 4 23
e 4 24
e 4 30
e 4 31
e 4 32
e 4 33
e 4 34
e 4 35
e 5 7
e 5 9
e 5 12
e 5 13
e 5 14
e 5 15
e 5 16
e 5 17
e 5 18
e 5 19
e 5 20
e 5 21
e 5 22
e 5 25
e 5 26
e 5 28
e 5 29
e 5 31
e 5 33
e 5 36
e 6 8
e 6 10
e 6 11
e 6 12
e 6 13
e 6 14
e 6 16
e 6 17
e 6 21
e 6 22
e 6 25
e 6 27
e 6 28
e 6 29
e 6 30
e 6 33
e 6 34
e 7 10
e 7 12
e 7 13
e 7 14
e 7 16
e 7 18
e 7 21
e 7 23
e 7 24
e 7 25
e 7 26
e 7 28
e 7 29
e 7 30
e 7 31
e 7 32
e 7 33
e 7 34
e 7 35
e 7 36
e 8 9
e 8 11
e 8 13
e 8 19
e 8 20
e 8 21
e 8 23
e 8 24
e 8 26
e 8 27
e 8 28
e 8 29
e 8 30
e 8 31
e 8 32
e 8 33
e 8 34
e 8 35
e 8 36
e 9 11
e 9 12
e 9 13
e 9 15
e 9 16
e 9 17
e 9 18
e 9 19
e 9 20
e 9 21
e 9 22
e 9 23
e 9 26
e 9 27
e 9 29
e 9 30
e 9 33
e 9 35
e 10 12
e 10 13
e 10 14
e 10 16
e 10 17
e 10 19
e 10 20
e 10 21
e 10 24
e 10 27
e 10 28
e 10 29
e 10 31
e 10 32
e 10 33
e 10 34
e 10 35
e 11 13
e 11 14
e 11 15
e 11 17
e 11 20
e 11 21
e 11 27
e 11 28
e 11 29
e 11 30
e 11 32
e 11 34
e 11 36
e 12 13
e 12 14
e 12 15
e 12 23
e 12 24
e 12 27
e 12 28
e 12 30
e 12 31
e 12 32
e 12 33
e 12 35
e 13 15
e 13 16
e 13 17
e 13 19
e 13 20
e 13 24
e 13 25
e 13 27
e 13 29
e 13 30
e 13 31
e 13 35
e 13 36
e 14 16
e 14 20
e 14 23
e 14 25
e 14 26
e 14 28
e 14 33
e 14 35
e 14 36
e 15 17
e 15 18
e 15 19
e 15 21
e 15 22
e 15 23
e 15 24
e 15 25
e 15 27
e 15 29
e 15 30
e 15 31
e 15 32
e 15 33
e 15 35
e 15 36
e 16 18
e 16 20
e 16 26
e 16 28
e 16 32
e 16 33
e 16 34
e 16 35
e 17 19
e 17 20
e 17 21
e 17 22
e 17 30
e 17 31
e 17 35
e 18 19
e 18 21
e 18 22
e 18 23
e 18 25
e 18 26
e 18 28
e 18 30
e 18 31
e 18 32
e 18 33
e 18 34
e 18 36
e 19 20
e 19 23
e 19 26
e 19 27
e 19 29
e 19 31
e 19 32
e 19 33
e 19 34
e 19 36
e 20 21
e 20 22
e 20 24
e 20 25
e 20 26
e 20 27
e 20 28
e 20 31
e 20 32
e 20 34
e 20 35
e 20 36
e 21 22
e 21 24
e 21 26
e 21 28
e 21 29
e 21 31
e 21 32
e 21 33
e 21 36
e 22 23
e 22 24
e 22 25
e 22 26
e 22 27
e 22 28
e 22 29
e 22 30
e 22 31
e 22 34
e 22 35
e 22 36
e 23 24
e 23 25
e 23 26
e 23 27
e 23 28
e 23 29
e 23 31
e 23 32
e 23 34
e 23 35
e 23 36
e 24 25
e 24 27
e 24 28
e 24 30
e 24 31
e 24 33
e 24 34
e 24 35
e 24 36
e 25 26
e 25 30
e 25 31
e 25 32
e 25 33
e 25 34
e 25 36
e 26 27
e 26 28
e 26 30
e 26 31
e 26 32
e 26 34
e 27 28
e 27 29
e 27 31
e 27 33
e 27 35
e 27 36
e 28 29
e 28 30
e 28 31
e 28 32
e 28 33
e 28 35
e 28 36
e 29 32
e 29 33
e 29 35
e 29 36
e 30 31
e 30 33
e 30 35
e 31 32
e 31 33
e 31 34
e 31 35
e 31 36
e 32 33
e 32 34
e 32 35
e 33 34
e 33 36
e 34 35
e 34 36
e 35 36